NAME : local_8
TYPE : ATSP
DIMENSION : 37
EDGE_WEIGHT_TYPE : EXPLICIT
EDGE_WEIGHT_FORMAT : FULL_MATRIX
EDGE_WEIGHT_SECTION
0 10000000 472 787 10000000 503 10000000 673 343 10000000 10000000 10000000 10000000 10000000 10000000 10000000 694 10000000 10000000 716 10000000 10000000 715 10000000 10000000 10000000 10000000 10000000 527 10000000 10000000 10000000 10000000 505 10000000 10000000 10000000 
0 0 10000000 808 439 10000000 594 952 10000000 801 495 559 712 649 725 728 750 10000000 518 10000000 10000000 429 10000000 10000000 925 10000000 10000000 10000000 10000000 721 10000000 904 10000000 10000000 605 10000000 10000000 
0 10000000 0 10000000 10000000 762 10000000 10000000 739 903 10000000 10000000 10000000 10000000 984 10000000 10000000 10000000 10000000 10000000 10000000 10000000 395 10000000 10000000 813 10000000 10000000 706 10000000 10000000 10000000 10000000 141 10000000 778 926 
0 808 10000000 0 864 730 10000000 595 724 10000000 10000000 903 10000000 406 10000000 10000000 234 10000000 10000000 888 10000000 10000000 10000000 10000000 10000000 10000000 10000000 10000000 10000000 836 10000000 875 10000000 10000000 584 10000000 10000000 
0 439 10000000 864 0 10000000 265 10000000 10000000 907 355 120 348 539 904 10000000 923 10000000 896 10000000 10000000 764 10000000 10000000 10000000 10000000 10000000 10000000 10000000 10000000 10000000 10000000 10000000 10000000 916 10000000 10000000 
0 10000000 762 730 10000000 0 10000000 968 757 10000000 10000000 10000000 10000000 1031 10000000 10000000 793 10000000 10000000 10000000 10000000 10000000 10000000 10000000 10000000 10000000 10000000 10000000 10000000 10000000 10000000 10000000 10000000 769 10000000 10000000 10000000 
0 594 10000000 10000000 265 10000000 0 10000000 10000000 770 211 245 119 728 808 10000000 10000000 10000000 939 10000000 10000000 787 10000000 10000000 10000000 10000000 10000000 10000000 10000000 10000000 10000000 10000000 10000000 10000000 10000000 10000000 10000000 
0 1007 10000000 595 10000000 968 10000000 0 370 10000000 10000000 10000000 10000000 903 10000000 10000000 365 963 1050 309 833 1198 10000000 10000000 10000000 10000000 631 10000000 643 550 10000000 492 10000000 10000000 457 10000000 10000000 
0 10000000 739 724 10000000 757 10000000 370 0 10000000 10000000 10000000 10000000 10000000 10000000 10000000 547 10000000 10000000 376 930 10000000 841 10000000 10000000 10000000 946 10000000 373 892 10000000 845 10000000 785 788 10000000 987 
0 801 906 10000000 907 10000000 770 10000000 10000000 0 575 967 835 10000000 165 793 10000000 10000000 648 10000000 10000000 537 995 10000000 661 379 10000000 10000000 10000000 10000000 856 10000000 981 997 10000000 284 10000000 
0 495 10000000 10000000 355 10000000 211 10000000 10000000 575 0 401 311 790 599 976 10000000 10000000 750 10000000 10000000 594 10000000 10000000 10000000 932 10000000 10000000 10000000 10000000 10000000 10000000 10000000 10000000 10000000 856 10000000 
0 559 10000000 903 120 10000000 245 10000000 10000000 967 401 0 289 555 982 10000000 988 10000000 10000000 10000000 10000000 873 10000000 10000000 10000000 10000000 10000000 10000000 10000000 10000000 10000000 10000000 10000000 10000000 10000000 10000000 10000000 
0 712 10000000 10000000 348 10000000 119 10000000 10000000 835 311 289 0 781 890 10000000 10000000 10000000 10000000 10000000 10000000 899 10000000 10000000 10000000 10000000 10000000 10000000 10000000 10000000 10000000 10000000 10000000 10000000 10000000 10000000 10000000 
0 649 10000000 406 539 970 728 903 10000000 10000000 790 555 781 0 10000000 10000000 559 10000000 10000000 10000000 10000000 10000000 10000000 10000000 10000000 10000000 10000000 10000000 10000000 941 10000000 10000000 10000000 10000000 693 10000000 10000000 
0 725 987 10000000 904 10000000 808 10000000 10000000 165 599 982 890 10000000 0 629 10000000 10000000 492 10000000 10000000 397 1001 10000000 514 352 10000000 10000000 10000000 10000000 717 10000000 871 10000000 10000000 335 10000000 
0 728 10000000 10000000 10000000 10000000 10000000 10000000 10000000 793 976 10000000 10000000 10000000 629 0 10000000 10000000 230 10000000 10000000 382 10000000 461 328 734 10000000 10000000 10000000 858 421 1036 687 10000000 993 852 10000000 
0 750 10000000 234 923 793 10000000 365 547 10000000 10000000 988 10000000 559 10000000 10000000 0 10000000 10000000 665 10000000 1071 10000000 10000000 10000000 10000000 886 10000000 901 658 10000000 681 10000000 10000000 429 10000000 10000000 
0 10000000 10000000 10000000 10000000 10000000 10000000 963 10000000 10000000 10000000 10000000 10000000 10000000 10000000 10000000 10000000 0 10000000 943 796 10000000 10000000 10000000 10000000 10000000 337 708 10000000 607 10000000 517 10000000 10000000 853 10000000 10000000 
0 518 10000000 10000000 896 10000000 939 1082 10000000 648 750 10000000 10000000 10000000 492 230 10000000 10000000 0 10000000 10000000 158 10000000 689 428 696 10000000 10000000 10000000 814 589 1045 839 10000000 833 774 10000000 
0 10000000 10000000 888 10000000 10000000 10000000 309 376 10000000 10000000 10000000 10000000 10000000 10000000 10000000 665 943 10000000 0 573 10000000 10000000 10000000 10000000 10000000 630 10000000 458 716 10000000 603 10000000 10000000 717 10000000 995 
0 10000000 10000000 10000000 10000000 10000000 10000000 833 930 10000000 10000000 10000000 10000000 10000000 10000000 10000000 10000000 796 10000000 573 0 10000000 10000000 10000000 10000000 10000000 644 777 828 973 10000000 805 10000000 10000000 10000000 10000000 10000000 
0 429 10000000 10000000 764 10000000 787 1133 10000000 537 594 873 899 10000000 397 382 1095 10000000 158 10000000 10000000 0 10000000 841 511 667 10000000 10000000 10000000 872 697 10000000 933 10000000 844 711 10000000 
0 10000000 395 10000000 10000000 10000000 10000000 10000000 841 1012 10000000 10000000 10000000 10000000 1009 10000000 10000000 10000000 10000000 10000000 10000000 10000000 0 10000000 1039 671 10000000 10000000 634 10000000 1064 10000000 873 425 10000000 707 568 
0 10000000 10000000 10000000 10000000 10000000 10000000 10000000 10000000 10000000 10000000 10000000 10000000 10000000 10000000 461 10000000 10000000 689 10000000 10000000 841 10000000 0 527 982 10000000 783 10000000 10000000 396 10000000 560 10000000 10000000 10000000 1080 
0 925 10000000 10000000 10000000 10000000 10000000 10000000 10000000 661 10000000 10000000 10000000 10000000 514 328 10000000 10000000 428 10000000 10000000 511 1043 527 0 470 10000000 10000000 10000000 10000000 208 10000000 433 10000000 10000000 618 973 
0 10000000 813 10000000 10000000 10000000 10000000 10000000 10000000 379 932 10000000 10000000 10000000 352 734 10000000 10000000 696 10000000 10000000 667 671 982 470 0 10000000 10000000 10000000 10000000 606 10000000 649 903 10000000 170 886 
0 10000000 10000000 10000000 10000000 10000000 10000000 631 946 10000000 10000000 10000000 10000000 10000000 10000000 10000000 886 337 10000000 630 644 10000000 10000000 10000000 10000000 10000000 0 899 10000000 400 10000000 234 10000000 10000000 601 10000000 10000000 
0 10000000 10000000 10000000 10000000 10000000 10000000 10000000 10000000 10000000 10000000 10000000 10000000 10000000 10000000 10000000 10000000 708 10000000 10000000 777 10000000 10000000 783 10000000 10000000 903 0 10000000 10000000 10000000 10000000 10000000 10000000 10000000 10000000 10000000 
0 10000000 706 10000000 10000000 10000000 10000000 643 373 10000000 10000000 10000000 10000000 10000000 10000000 10000000 901 10000000 10000000 458 828 10000000 634 10000000 10000000 10000000 10000000 10000000 0 10000000 10000000 10000000 10000000 739 10000000 10000000 642 
0 721 10000000 836 10000000 10000000 10000000 550 892 10000000 10000000 10000000 10000000 941 10000000 858 658 607 814 716 973 872 10000000 10000000 10000000 10000000 400 10000000 10000000 0 10000000 204 10000000 10000000 259 10000000 10000000 
0 10000000 10000000 10000000 10000000 10000000 10000000 10000000 10000000 856 10000000 10000000 10000000 10000000 717 421 10000000 10000000 589 10000000 10000000 697 1082 396 208 606 10000000 10000000 10000000 10000000 0 10000000 274 10000000 10000000 770 855 
0 904 10000000 875 10000000 10000000 10000000 492 845 10000000 10000000 10000000 10000000 10000000 10000000 1053 681 517 1056 603 805 10000000 10000000 10000000 10000000 10000000 234 10000000 10000000 204 10000000 0 10000000 10000000 369 10000000 10000000 
0 10000000 10000000 10000000 10000000 10000000 10000000 10000000 10000000 981 10000000 10000000 10000000 10000000 871 687 10000000 10000000 839 10000000 10000000 933 873 560 433 649 10000000 10000000 10000000 10000000 274 10000000 0 10000000 10000000 818 603 
0 10000000 141 10000000 10000000 769 10000000 10000000 785 1013 10000000 10000000 10000000 10000000 10000000 10000000 10000000 10000000 10000000 10000000 10000000 10000000 425 10000000 10000000 903 10000000 10000000 739 10000000 10000000 10000000 10000000 0 10000000 867 955 
0 605 10000000 584 916 10000000 10000000 457 788 10000000 10000000 10000000 10000000 693 10000000 1022 429 853 833 717 10000000 844 10000000 10000000 10000000 10000000 601 10000000 10000000 259 10000000 369 10000000 10000000 0 10000000 10000000 
0 10000000 778 10000000 10000000 10000000 10000000 10000000 10000000 284 856 10000000 10000000 10000000 335 852 10000000 10000000 774 10000000 10000000 711 707 10000000 618 170 10000000 10000000 10000000 10000000 770 10000000 818 867 10000000 0 10000000 
0 10000000 10000000 10000000 10000000 10000000 10000000 10000000 10000000 10000000 10000000 10000000 10000000 10000000 10000000 10000000 10000000 10000000 10000000 10000000 10000000 10000000 10000000 10000000 10000000 10000000 10000000 10000000 10000000 10000000 10000000 10000000 10000000 10000000 10000000 10000000 0 
EOF